
Gurobi 11.0.3 (win64) logging started Wed Jan  8 14:39:38 2025

Set parameter LogFile to value "logs2/r201.txt_10.txt"
Set parameter Heuristics to value 0.5
Set parameter SimplexPricing to value 2
Gurobi Optimizer version 11.0.3 build v11.0.3rc0 (win64 - Windows 10.0 (19045.2))

CPU model: Intel(R) Core(TM) i5-7200U CPU @ 2.50GHz, instruction set [SSE2|AVX|AVX2]
Thread count: 2 physical cores, 4 logical processors, using up to 4 threads

Optimize a model with 6138 rows, 5834 columns and 28664 nonzeros
Model fingerprint: 0xa615d6b1
Variable types: 102 continuous, 5732 integer (5732 binary)
Coefficient statistics:
  Matrix range     [1e+00, 1e+04]
  Objective range  [4e+00, 1e+03]
  Bounds range     [1e+00, 1e+00]
  RHS range        [1e+00, 1e+04]

User MIP start produced solution with objective 68325 (12.31s)
Loaded user MIP start with objective 68325
Processed MIP start in 23.91 seconds (0.00 work units)


Explored 0 nodes (0 simplex iterations) in 23.92 seconds (0.00 work units)
Thread count was 1 (of 4 available processors)

Solution count 2: 68325 68325 

Optimal solution found (tolerance 1.00e-04)
Best objective 6.832500000000e+04, best bound 6.832500000000e+04, gap 0.0000%

User-callback calls 30, time in user-callback 23.88 sec
